    units real
    atom_style full
    bond_style hybrid harmonic
    angle_style hybrid harmonic
    dihedral_style hybrid opls
    pair_style lj/cut 10.0
    pair_modify mix geometric
    special_bonds lj/coul 0.0 0.0 0.5
